
%FILE DATA:	Soccer Computational Problem for MiniZinc Models	%
%AUTHOR:	Jack Wall	%
%CONTACT:  	116397063@umail.ucc.ie			%
%LAST UPDATE:	03/19/2020, 18:19:11						%
%DESCRIPTION: 	208 games played with 32 games left				%


n=16; %number of teams

%Games to play
games=[|10,16|11,16|14,7|12,2|11,5|2,6|9,7|16,12|2,14|9,5|6,9|7,14|16,3|14,5|11,4|3,4|2,5|16,7|8,11|4,6|14,9|6,1|8,7|15,4|12,8|16,6|14,1|1,4|8,5|4,5|14,6|2,8|];

%Initial points
iPoints=[38,32,49,31,25,24,35,47,29,45,33,39,37,22,38,33];

%POSITION CONSTRAINTS
% [|teamID, operator, position|...]
% operators index:
%  1 for =  operator
%  2 for >  operator
%  3 for >= operator
%  4 for <  operator
%  5 for <= operator
positionConstraints=[|8,3,1|3,5,2|10,2,2|12,5,4|];